NAME          
ROWS
 N  OBJ
 L  c1
 L  c2
 L  c3
 L  c4
 L  c5
 L  c6
 L  c7
 L  c8
COLUMNS
    MARKER    'MARKER'                 'INTORG'
    x6        OBJ       0
    x1        c1        1
    x1        c2        1
    x1        c4        -1
    x1        c5        -1
    x2        c1        -1
    x2        c3        1
    x3        c4        1
    x3        c6        -1
    x3        c7        -1
    x4        c5        1
    x4        c6        1
    x4        c8        -1
    x5        c2        -1
    x5        c3        -1
    x5        c7        1
    x5        c8        1
RHS
    rhs       c1        0
    rhs       c2        -1.2
    rhs       c3        1
    rhs       c4        5.4
    rhs       c5        4.2
    rhs       c6        -1.3
    rhs       c7        -3
    rhs       c8        -3
RANGES
BOUNDS
 FX bounds    x6        0
 FR bounds    x1
 FR bounds    x2
 FR bounds    x3
 FR bounds    x4
 FR bounds    x5
ENDATA
